10
1 5
2 9
3 3
4 3
5 3
6 7
7 7
8 8
9 3
10 3
47
0 1 66
1 0 66
0 2 53
2 0 53
0 3 74
3 0 74
0 4 5
4 0 5
0 5 77
5 0 77
0 6 35
6 0 35
0 7 22
7 0 22
0 8 75
8 0 75
0 9 60
9 0 60
1 2 65
1 3 84
1 4 35
1 6 45
1 8 71
1 9 74
2 3 40
2 5 58
2 6 98
2 7 29
2 8 40
2 9 59
3 5 61
3 6 77
3 7 1
3 8 89
3 9 79
4 5 8
4 6 86
4 7 52
4 8 85
4 9 100
5 7 77
5 8 26
5 9 100
6 7 49
6 9 71
7 9 22
8 9 23
